Instance name : DPDPTWHF_R_DPDPTWUR-R_dbscan_poa-n100-1
Authors : 
Date : 
Reference 
Solution
Route 1 : 12 62 22 37 72 87 
Route 2 : 6 46 96 56 27 77 
Route 3 : 3 8 53 40 58 18 68 90 44 94 
Route 4 : 50 48 100 98 15 65 
Route 5 : 4 28 78 36 54 86 
Route 6 : 23 73 7 57 30 24 80 74 
Route 7 : 1 26 76 51 16 66 
Route 8 : 45 21 17 95 71 31 67 81 
Route 9 : 42 47 97 35 10 60 92 85 
Route 10 : 41 20 91 70 33 83 
Route 11 : 38 32 88 82 29 79 5 55 
Route 12 : 34 14 64 13 63 84 
Route 13 : 49 99 2 19 52 69 
Route 14 : 11 25 61 39 75 89 43 93 
